sat
(
  (define-fun C2_VM4 () Int
    0)
  (define-fun PriceProv6 () Int
    0)
  (define-fun C1_VM8 () Int
    0)
  (define-fun C5_VM4 () Int
    1)
  (define-fun C5_VM5 () Int
    0)
  (define-fun MemProv1 () Int
    1350)
  (define-fun C1_VM3 () Int
    1)
  (define-fun C4_VM7 () Int
    0)
  (define-fun StorageProv5 () Int
    42000)
  (define-fun VM2Type () Int
    0)
  (define-fun MemProv2 () Int
    28351)
  (define-fun C1_VM6 () Int
    0)
  (define-fun ProcProv5 () Int
    900)
  (define-fun C2_VM2 () Int
    0)
  (define-fun C4_VM1 () Int
    0)
  (define-fun C4_VM6 () Int
    0)
  (define-fun C3_VM4 () Int
    0)
  (define-fun StorageProv4 () Int
    141000)
  (define-fun C2_VM5 () Int
    1)
  (define-fun PriceProv3 () Int
    480)
  (define-fun C1_VM5 () Int
    1)
  (define-fun C3_VM1 () Int
    0)
  (define-fun C5_VM6 () Int
    0)
  (define-fun C2_VM7 () Int
    0)
  (define-fun StorageProv6 () Int
    69001)
  (define-fun VM3Type () Int
    10)
  (define-fun C2_VM3 () Int
    0)
  (define-fun PriceProv4 () Int
    480)
  (define-fun ProcProv6 () Int
    1799)
  (define-fun PriceProv7 () Int
    0)
  (define-fun ProcProv3 () Int
    3600)
  (define-fun C3_VM5 () Int
    0)
  (define-fun MemProv7 () Int
    28351)
  (define-fun C5_VM2 () Int
    0)
  (define-fun PriceProv2 () Int
    0)
  (define-fun ProcProv8 () Int
    1800)
  (define-fun VM8Type () Int
    7)
  (define-fun C5_VM1 () Int
    0)
  (define-fun MemProv3 () Int
    6750)
  (define-fun C4_VM8 () Int
    1)
  (define-fun VM7Type () Int
    0)
  (define-fun C1_VM7 () Int
    0)
  (define-fun VM5Type () Int
    1)
  (define-fun PriceProv1 () Int
    120)
  (define-fun C2_VM1 () Int
    1)
  (define-fun C1_VM1 () Int
    0)
  (define-fun StorageProv8 () Int
    69000)
  (define-fun C5_VM8 () Int
    0)
  (define-fun MemProv8 () Int
    3150)
  (define-fun VM1Type () Int
    1)
  (define-fun C3_VM3 () Int
    0)
  (define-fun StorageProv2 () Int
    87001)
  (define-fun C3_VM6 () Int
    0)
  (define-fun C3_VM2 () Int
    0)
  (define-fun C2_VM6 () Int
    0)
  (define-fun ProcProv1 () Int
    900)
  (define-fun StorageProv1 () Int
    42000)
  (define-fun C4_VM4 () Int
    0)
  (define-fun C2_VM8 () Int
    0)
  (define-fun StorageProv3 () Int
    141000)
  (define-fun C4_VM2 () Int
    0)
  (define-fun C1_VM4 () Int
    1)
  (define-fun C5_VM7 () Int
    0)
  (define-fun ProcProv7 () Int
    7201)
  (define-fun C3_VM8 () Int
    0)
  (define-fun C5_VM3 () Int
    1)
  (define-fun C3_VM7 () Int
    0)
  (define-fun C4_VM5 () Int
    0)
  (define-fun PriceProv8 () Int
    240)
  (define-fun VM4Type () Int
    10)
  (define-fun ProcProv4 () Int
    3600)
  (define-fun MemProv5 () Int
    1350)
  (define-fun C4_VM3 () Int
    0)
  (define-fun ProcProv2 () Int
    7201)
  (define-fun MemProv4 () Int
    6750)
  (define-fun PriceProv5 () Int
    120)
  (define-fun C1_VM2 () Int
    0)
  (define-fun VM6Type () Int
    0)
  (define-fun MemProv6 () Int
    3151)
  (define-fun StorageProv7 () Int
    50999)
)
(objectives
 ((+ 0
   PriceProv1
   PriceProv2
   PriceProv3
   PriceProv4
   PriceProv5
   PriceProv6
   PriceProv7
   PriceProv8) 1440)
)
(:added-eqs                   237029
 :arith-eq-adapter            9283
 :arith-bound-propagations-lp 56010
 :arith-conflicts             293
 :arith-diseq                 203707
 :arith-fixed-eqs             1485
 :arith-lower                 332004
 :arith-make-feasible         31002
 :arith-max-columns           145
 :arith-max-rows              26
 :arith-upper                 138620
 :binary-propagations         1165115
 :conflicts                   5997
 :decisions                   55936
 :del-clause                  70182
 :final-checks                29
 :max-memory                  49.60
 :memory                      49.60
 :minimized-lits              81280
 :mk-bool-var                 19892
 :mk-clause                   71654
 :mk-clause-binary            3916
 :num-allocs                  39445810
 :num-checks                  24
 :pb-conflicts                1237
 :pb-predicates               407
 :pb-propagations             8496
 :pb-resolves                 1229
 :propagations                1988799
 :restarts                    47
 :rlimit-count                9672488
 :time                        0.45
 :total-time                  0.46)
